c Grid graph 4x14
p edge 56 94
e 1 2
e 1 15
e 2 3
e 2 16
e 3 4
e 3 17
e 4 5
e 4 18
e 5 6
e 5 19
e 6 7
e 6 20
e 7 8
e 7 21
e 8 9
e 8 22
e 9 10
e 9 23
e 10 11
e 10 24
e 11 12
e 11 25
e 12 13
e 12 26
e 13 14
e 13 27
e 14 28
e 15 16
e 15 29
e 16 17
e 16 30
e 17 18
e 17 31
e 18 19
e 18 32
e 19 20
e 19 33
e 20 21
e 20 34
e 21 22
e 21 35
e 22 23
e 22 36
e 23 24
e 23 37
e 24 25
e 24 38
e 25 26
e 25 39
e 26 27
e 26 40
e 27 28
e 27 41
e 28 42
e 29 30
e 29 43
e 30 31
e 30 44
e 31 32
e 31 45
e 32 33
e 32 46
e 33 34
e 33 47
e 34 35
e 34 48
e 35 36
e 35 49
e 36 37
e 36 50
e 37 38
e 37 51
e 38 39
e 38 52
e 39 40
e 39 53
e 40 41
e 40 54
e 41 42
e 41 55
e 42 56
e 43 44
e 44 45
e 45 46
e 46 47
e 47 48
e 48 49
e 49 50
e 50 51
e 51 52
e 52 53
e 53 54
e 54 55
e 55 56
